1000
1	472	347
2	560	311
3	493	478
4	348	461
5	494	399
6	358	492
7	304	433
8	538	354
9	529	426
10	325	517
11	395	522
12	317	471
13	326	597
14	403	435
15	561	301
16	471	549
17	523	561
18	319	330
19	584	311
20	404	352
21	537	369
22	496	581
23	497	353
24	463	588
25	581	375
26	344	350
27	404	333
28	533	405
29	588	546
30	410	350